c colouring generated by benchmark framework
p edge 144 2596
v 1 7
v 2 3
v 3 6
v 4 8
v 5 0
v 6 10
v 7 14
v 8 9
v 9 12
v 10 11
v 11 2
v 12 5
v 13 9
v 14 16
v 15 11
v 16 12
v 17 5
v 18 1
v 19 0
v 20 4
v 21 10
v 22 7
v 23 3
v 24 8
v 25 1
v 26 0
v 27 15
v 28 13
v 29 10
v 30 2
v 31 11
v 32 6
v 33 9
v 34 14
v 35 4
v 36 7
v 37 16
v 38 9
v 39 8
v 40 4
v 41 6
v 42 5
v 43 1
v 44 10
v 45 2
v 46 12
v 47 11
v 48 14
v 49 4
v 50 2
v 51 13
v 52 14
v 53 3
v 54 9
v 55 16
v 56 11
v 57 6
v 58 15
v 59 5
v 60 0
v 61 6
v 62 5
v 63 1
v 64 15
v 65 4
v 66 0
v 67 10
v 68 7
v 69 14
v 70 9
v 71 16
v 72 3
v 73 2
v 74 10
v 75 14
v 76 5
v 77 11
v 78 16
v 79 13
v 80 0
v 81 4
v 82 3
v 83 7
v 84 12
v 85 11
v 86 7
v 87 16
v 88 1
v 89 9
v 90 14
v 91 3
v 92 8
v 93 15
v 94 0
v 95 10
v 96 2
v 97 10
v 98 15
v 99 12
v 100 0
v 101 16
v 102 4
v 103 7
v 104 1
v 105 5
v 106 8
v 107 13
v 108 9
v 109 12
v 110 13
v 111 4
v 112 9
v 113 1
v 114 15
v 115 8
v 116 2
v 117 7
v 118 6
v 119 14
v 120 11
v 121 15
v 122 6
v 123 5
v 124 10
v 125 13
v 126 11
v 127 9
v 128 14
v 129 16
v 130 2
v 131 1
v 132 4
v 133 13
v 134 11
v 135 9
v 136 16
v 137 7
v 138 6
v 139 5
v 140 3
v 141 0
v 142 4
v 143 12
v 144 10
